%CPU=0-39
%mem=155GB
#p opt=(NoLinear,MaxStep=5) guess=indo b3lyp/6-31G(d)

Fragment

0 1
N -1.6645 0.1473 -0.0477
C -0.2345 0.2493 -0.3017
C 0.2755 -1.1427 -0.7127
O -0.4525 -2.1307 -0.7947
H -0.0825 0.9363 -1.1417
C 0.5115 0.7543 0.9283
H 0.1385 1.7343 1.2433
H 0.3905 0.0653 1.7713
H 1.5845 0.8503 0.7303
H -2.1745 0.9483 0.3113
O 1.5925 -1.2497 -0.9917
H 2.2225 -0.3947 -0.9217
N -4.2251 -3.0269 -1.5411
C -3.7609 -1.6417 -1.5612
C -3.5228 -1.2351 -0.0935
O -3.7131 -1.9961 0.8533
C -4.7542 -0.727 -2.3148
C -6.0945 -0.5701 -1.59
C -4.1612 0.6487 -2.6271
H -2.7917 -1.6343 -2.0756
H -4.9704 -1.1991 -3.2843
H -6.5557 -1.5424 -1.3945
H -6.794 0.0098 -2.2014
H -5.9783 -0.0467 -0.6345
H -4.8205 1.2016 -3.3056
H -3.1864 0.5544 -3.1167
H -4.0396 1.256 -1.7255
H -4.5175 -3.4772 -2.4041
N -7.0369 -4.5371 -0.211
C -6.1518 -5.1194 -1.2242
C -4.9796 -4.1313 -1.3772
O -4.8964 -3.0881 -0.7305
H -5.772 -6.0651 -0.8163
C -6.8897 -5.3391 -2.5514
H -7.8658 -5.804 -2.3803
S -5.9899 -6.4258 -3.7134
H -7.0727 -4.3831 -3.0553
H -6.9858 -6.5425 -4.6061
H -6.8264 -3.5904 0.0959
N -10.1766 -6.608 -1.5311
C -8.7359 -6.5091 -1.4561
C -8.3092 -6.1732 -0.0299
O -9.1005 -6.0164 0.8963
H -8.3012 -7.4682 -1.7571
H -8.3999 -5.7234 -2.1385
H -10.706 -6.4542 -0.6774
H -10.6305 -6.7506 -2.4296

